4 
5  02 25 48 
6  03 18 33 48 
7  03 18 33 48 
8  03 18 33 48 
9  03 18 33 48 
10  03 18 33 48 
11  03 18 33 48 
12  03 18 33 48 
13  04 19 34 49 
14  01 16 31 45 
15  00 15 30 45 
16  00 15 30 45 
17  00 15 30 45 
18  03 18 37 54 
19  08 23 38 53 
20  08 23 38 53 
21  10 25 40 55 
22  09 24 39 54 
23  18 
0 
